c FILE: i160-312

c SOURCE: From steinlib

c DESCRIPTION: Steinlib instance with 160 nodes and 812 edges.

p edge 160 812
e 1 10
e 1 17
e 1 33
e 1 36
e 1 42
e 1 48
e 1 60
e 1 71
e 1 79
e 1 84
e 1 121
e 1 141
e 1 147
e 1 150
e 1 158
e 2 17
e 2 21
e 2 77
e 2 80
e 2 86
e 2 89
e 2 101
e 2 115
e 2 128
e 2 131
e 2 139
e 2 143
e 2 144
e 3 4
e 3 6
e 3 26
e 3 36
e 3 41
e 3 44
e 3 78
e 3 83
e 3 101
e 3 133
e 3 140
e 3 154
e 3 155
e 4 17
e 4 31
e 4 38
e 4 67
e 4 90
e 4 111
e 4 138
e 4 153
e 5 31
e 5 34
e 5 35
e 5 41
e 5 43
e 5 55
e 5 80
e 5 109
e 5 116
e 5 120
e 5 158
e 6 8
e 6 15
e 6 35
e 6 47
e 6 59
e 6 78
e 7 10
e 7 25
e 7 28
e 7 29
e 7 40
e 7 45
e 7 54
e 7 55
e 7 80
e 7 142
e 8 33
e 8 83
e 8 89
e 8 102
e 8 140
e 9 22
e 9 24
e 9 45
e 9 63
e 9 65
e 9 69
e 9 110
e 9 113
e 9 120
e 9 124
e 9 129
e 10 20
e 10 21
e 10 36
e 10 55
e 10 99
e 10 114
e 10 134
e 10 142
e 10 143
e 10 149
e 11 15
e 11 33
e 11 34
e 11 38
e 11 43
e 11 75
e 11 117
e 11 120
e 11 125
e 11 126
e 11 151
e 11 156
e 12 20
e 12 36
e 12 60
e 12 88
e 12 92
e 12 133
e 12 147
e 13 43
e 13 67
e 13 68
e 13 69
e 13 100
e 13 106
e 13 108
e 13 150
e 13 157
e 14 34
e 14 41
e 14 77
e 14 94
e 14 105
e 14 111
e 14 115
e 15 36
e 15 52
e 15 61
e 15 91
e 15 102
e 15 106
e 15 121
e 15 129
e 15 130
e 15 134
e 15 136
e 15 143
e 15 145
e 15 148
e 16 32
e 16 34
e 16 57
e 16 62
e 16 73
e 16 82
e 16 84
e 16 89
e 16 101
e 16 116
e 16 158
e 17 23
e 17 26
e 17 30
e 17 32
e 17 46
e 17 47
e 17 51
e 17 53
e 17 58
e 17 80
e 17 95
e 17 101
e 17 120
e 17 127
e 18 22
e 18 25
e 18 28
e 18 51
e 18 85
e 18 122
e 18 145
e 18 156
e 19 24
e 19 37
e 19 55
e 19 96
e 19 119
e 19 123
e 19 129
e 19 144
e 19 145
e 20 67
e 20 69
e 20 71
e 20 107
e 20 114
e 20 117
e 20 120
e 20 122
e 20 123
e 20 125
e 21 34
e 21 36
e 21 61
e 21 67
e 21 79
e 21 82
e 21 86
e 21 112
e 21 115
e 21 117
e 21 120
e 22 27
e 22 31
e 22 34
e 22 46
e 22 62
e 22 66
e 22 74
e 22 94
e 22 141
e 23 24
e 23 61
e 23 63
e 23 114
e 23 124
e 23 141
e 23 142
e 24 43
e 24 61
e 24 83
e 24 99
e 24 101
e 25 29
e 25 85
e 25 89
e 25 103
e 25 109
e 25 117
e 25 129
e 25 138
e 25 141
e 25 160
e 26 37
e 26 44
e 26 72
e 26 96
e 26 118
e 26 120
e 26 127
e 26 148
e 26 150
e 27 32
e 27 33
e 27 43
e 27 58
e 27 87
e 27 99
e 27 111
e 27 128
e 27 151
e 27 153
e 28 30
e 28 38
e 28 54
e 28 68
e 28 79
e 28 82
e 28 101
e 28 128
e 28 135
e 29 49
e 29 54
e 29 58
e 29 69
e 29 95
e 29 118
e 29 119
e 30 86
e 30 87
e 30 115
e 30 119
e 30 155
e 31 33
e 31 64
e 31 68
e 31 78
e 31 88
e 31 96
e 31 138
e 31 149
e 31 156
e 32 34
e 32 42
e 32 58
e 32 60
e 32 65
e 32 80
e 32 99
e 32 102
e 32 107
e 32 156
e 33 34
e 33 51
e 33 59
e 33 81
e 33 93
e 33 96
e 33 99
e 33 106
e 33 125
e 33 133
e 33 137
e 33 143
e 33 147
e 33 157
e 34 36
e 34 43
e 34 60
e 34 86
e 34 112
e 34 128
e 34 133
e 34 134
e 34 148
e 34 149
e 34 150
e 35 103
e 35 119
e 35 128
e 35 133
e 35 159
e 36 42
e 36 51
e 36 77
e 36 118
e 36 122
e 36 131
e 36 140
e 36 148
e 36 153
e 37 56
e 37 92
e 37 104
e 37 115
e 37 118
e 37 122
e 38 42
e 38 54
e 38 55
e 38 70
e 38 71
e 38 89
e 38 111
e 38 115
e 38 128
e 38 146
e 38 150
e 39 49
e 39 50
e 39 55
e 39 69
e 39 81
e 39 83
e 39 89
e 39 93
e 39 117
e 39 139
e 40 65
e 40 75
e 40 80
e 40 111
e 40 130
e 40 147
e 40 153
e 40 157
e 41 52
e 41 71
e 41 79
e 41 87
e 41 95
e 41 97
e 41 133
e 41 134
e 41 154
e 42 55
e 42 75
e 42 82
e 42 94
e 42 100
e 42 103
e 42 105
e 42 114
e 42 131
e 42 150
e 43 49
e 43 60
e 43 74
e 43 92
e 43 95
e 43 110
e 43 154
e 43 159
e 43 160
e 44 55
e 44 90
e 44 112
e 44 115
e 44 128
e 44 138
e 44 142
e 44 146
e 45 57
e 45 60
e 45 88
e 45 90
e 45 92
e 45 113
e 45 130
e 45 132
e 45 133
e 45 137
e 46 54
e 46 61
e 46 65
e 46 71
e 46 119
e 46 145
e 46 148
e 47 94
e 47 98
e 47 102
e 47 122
e 47 146
e 47 156
e 47 157
e 48 67
e 48 116
e 48 125
e 48 131
e 49 59
e 49 68
e 49 76
e 49 90
e 49 104
e 49 154
e 50 60
e 50 63
e 50 70
e 50 75
e 50 80
e 50 97
e 50 102
e 50 121
e 50 133
e 50 139
e 50 142
e 50 152
e 51 52
e 51 82
e 51 111
e 51 122
e 51 127
e 51 155
e 52 74
e 52 83
e 52 87
e 52 99
e 52 116
e 52 130
e 52 160
e 53 128
e 53 132
e 53 137
e 53 144
e 54 93
e 54 94
e 54 113
e 54 116
e 54 120
e 54 129
e 54 133
e 55 65
e 55 81
e 55 119
e 55 121
e 55 132
e 55 145
e 56 62
e 56 72
e 56 82
e 56 93
e 56 101
e 56 137
e 56 156
e 57 76
e 57 90
e 57 98
e 57 130
e 57 148
e 57 151
e 57 155
e 58 81
e 58 137
e 58 138
e 59 60
e 59 76
e 59 79
e 59 89
e 59 97
e 59 98
e 59 104
e 59 122
e 59 148
e 59 160
e 60 90
e 61 69
e 61 72
e 61 74
e 61 94
e 61 97
e 61 123
e 61 127
e 61 131
e 62 70
e 62 106
e 62 111
e 62 120
e 62 155
e 63 81
e 63 87
e 63 93
e 63 123
e 63 128
e 64 66
e 64 102
e 64 131
e 64 134
e 64 140
e 64 141
e 64 160
e 65 91
e 65 120
e 65 121
e 65 133
e 65 141
e 65 155
e 66 91
e 66 104
e 66 119
e 66 122
e 66 125
e 66 153
e 67 111
e 67 138
e 68 81
e 68 144
e 68 146
e 69 92
e 69 99
e 70 73
e 70 79
e 70 102
e 70 111
e 70 113
e 70 120
e 70 131
e 71 88
e 71 97
e 71 139
e 71 140
e 71 143
e 71 154
e 72 142
e 72 147
e 73 124
e 73 145
e 73 151
e 73 154
e 74 91
e 74 100
e 74 104
e 74 141
e 74 146
e 75 123
e 75 128
e 75 129
e 75 131
e 75 142
e 75 149
e 76 84
e 76 87
e 76 96
e 76 100
e 76 125
e 76 132
e 76 141
e 77 79
e 77 88
e 77 93
e 77 96
e 78 99
e 78 155
e 78 159
e 79 83
e 79 105
e 79 106
e 79 111
e 79 117
e 79 120
e 80 81
e 80 88
e 80 97
e 80 111
e 80 117
e 80 119
e 80 120
e 80 140
e 80 145
e 80 156
e 81 86
e 81 105
e 81 111
e 81 113
e 82 91
e 82 101
e 82 111
e 82 113
e 82 136
e 83 91
e 83 137
e 83 150
e 83 157
e 84 91
e 84 96
e 84 114
e 84 117
e 84 128
e 84 138
e 84 144
e 84 147
e 84 151
e 85 92
e 85 102
e 85 110
e 85 119
e 85 122
e 85 158
e 86 116
e 86 125
e 86 135
e 87 134
e 87 147
e 88 89
e 88 108
e 88 109
e 88 157
e 88 160
e 89 104
e 89 110
e 89 113
e 89 134
e 90 94
e 90 98
e 90 101
e 90 102
e 90 126
e 90 151
e 90 154
e 91 100
e 91 124
e 91 125
e 91 141
e 92 106
e 92 111
e 92 126
e 92 128
e 92 154
e 93 97
e 93 120
e 93 129
e 94 101
e 94 114
e 94 120
e 94 152
e 94 153
e 94 158
e 95 102
e 95 123
e 95 137
e 95 140
e 95 159
e 96 139
e 96 154
e 97 99
e 97 104
e 97 108
e 97 109
e 98 108
e 98 128
e 98 141
e 98 155
e 99 101
e 99 111
e 99 112
e 99 129
e 99 138
e 99 160
e 100 101
e 100 146
e 100 156
e 101 106
e 101 109
e 101 125
e 101 136
e 101 152
e 101 157
e 101 160
e 102 158
e 103 111
e 103 115
e 103 147
e 103 153
e 104 109
e 104 113
e 104 155
e 105 106
e 105 107
e 105 120
e 105 140
e 105 146
e 106 140
e 107 109
e 107 123
e 107 156
e 108 137
e 109 144
e 109 150
e 110 136
e 110 141
e 110 158
e 111 114
e 111 120
e 111 145
e 111 147
e 111 153
e 111 156
e 111 158
e 112 123
e 113 123
e 113 139
e 113 158
e 114 117
e 114 160
e 115 122
e 115 145
e 116 121
e 116 147
e 116 154
e 118 120
e 119 157
e 120 124
e 120 139
e 120 146
e 122 136
e 122 140
e 123 135
e 123 142
e 123 154
e 124 138
e 124 139
e 125 131
e 125 152
e 126 133
e 126 154
e 127 146
e 127 156
e 128 142
e 128 159
e 129 132
e 129 137
e 130 142
e 131 141
e 131 150
e 131 158
e 134 151
e 135 156
e 135 158
e 136 150
e 137 140
e 137 141
e 138 142
e 139 146
e 139 150
e 140 151
e 140 154
e 140 158
e 141 142
e 141 145
e 142 155
e 142 159
e 143 152
e 144 151
e 144 157
e 144 159
e 146 148
e 147 148
e 148 152
e 151 152
e 158 159
